0,233685
0,235236
0,247494
0,25143
0,237102
0,247282
0,263106
0,247931
0,239143
0,230517
0,235442
0,224505
0,228586
0,239345
0,236938
0,212287
0,22628
0,214141
0,218011
0,233343
0,205547
0,221727
0,20743
0,217615
0,200373
